p cnf 931 1715
-240 -897 0
898 -897 0
-240 898 0
-289 -896 0
897 -896 0
-289 897 0
-45 -907 0
-339 902 0
-94 -906 0
907 -906 0
-94 907 0
-143 -905 0
906 -905 0
-143 906 0
-192 -904 0
905 -904 0
-192 905 0
-241 -903 0
904 -903 0
-241 904 0
-290 -902 0
903 -902 0
-290 903 0
-46 -913 0
-340 908 0
-95 -912 0
913 -912 0
-95 913 0
-144 -911 0
912 -911 0
-144 912 0
-193 -910 0
911 -910 0
-193 911 0
-242 -909 0
910 -909 0
-242 910 0
-291 -908 0
909 -908 0
-291 909 0
-47 -919 0
-341 914 0
-96 -918 0
919 -918 0
-96 919 0
-145 -917 0
918 -917 0
-145 918 0
-194 -916 0
917 -916 0
-194 917 0
-243 -915 0
916 -915 0
-243 916 0
-292 -914 0
915 -914 0
-292 915 0
-48 -925 0
-342 920 0
-97 -924 0
925 -924 0
-97 925 0
-146 -923 0
924 -923 0
-146 924 0
-195 -922 0
923 -922 0
-195 923 0
-244 -921 0
922 -921 0
-244 922 0
-293 -920 0
921 -920 0
-293 921 0
-49 -931 0
-343 926 0
-98 -930 0
931 -930 0
-98 931 0
-147 -929 0
930 -929 0
-147 930 0
-196 -928 0
929 -928 0
-196 929 0
-245 -927 0
928 -927 0
-245 928 0
-294 -926 0
927 -926 0
-294 927 0
1 2 3 4 5 6 7 0
8 9 10 11 12 13 14 0
15 16 17 18 19 20 21 0
22 23 24 25 26 27 28 0
29 30 31 32 33 34 35 0
36 37 38 39 40 41 42 0
43 44 45 46 47 48 49 0
50 51 52 53 54 55 56 0
57 58 59 60 61 62 63 0
64 65 66 67 68 69 70 0
71 72 73 74 75 76 77 0
78 79 80 81 82 83 84 0
85 86 87 88 89 90 91 0
92 93 94 95 96 97 98 0
99 100 101 102 103 104 105 0
106 107 108 109 110 111 112 0
113 114 115 116 117 118 119 0
120 121 122 123 124 125 126 0
127 128 129 130 131 132 133 0
134 135 136 137 138 139 140 0
141 142 143 144 145 146 147 0
148 149 150 151 152 153 154 0
155 156 157 158 159 160 161 0
162 163 164 165 166 167 168 0
169 170 171 172 173 174 175 0
176 177 178 179 180 181 182 0
183 184 185 186 187 188 189 0
190 191 192 193 194 195 196 0
197 198 199 200 201 202 203 0
204 205 206 207 208 209 210 0
211 212 213 214 215 216 217 0
218 219 220 221 222 223 224 0
225 226 227 228 229 230 231 0
232 233 234 235 236 237 238 0
239 240 241 242 243 244 245 0
246 247 248 249 250 251 252 0
253 254 255 256 257 258 259 0
260 261 262 263 264 265 266 0
267 268 269 270 271 272 273 0
274 275 276 277 278 279 280 0
281 282 283 284 285 286 287 0
288 289 290 291 292 293 294 0
295 296 297 298 299 300 301 0
302 303 304 305 306 307 308 0
309 310 311 312 313 314 315 0
316 317 318 319 320 321 322 0
323 324 325 326 327 328 329 0
330 331 332 333 334 335 336 0
337 338 339 340 341 342 343 0
-1 -349 0
-43 344 0
-8 -348 0
349 -348 0
-8 349 0
-15 -347 0
348 -347 0
-15 348 0
-22 -346 0
347 -346 0
-22 347 0
-29 -345 0
346 -345 0
-29 346 0
-36 -344 0
345 -344 0
-36 345 0
-2 -355 0
-44 350 0
-9 -354 0
355 -354 0
-9 355 0
-16 -353 0
354 -353 0
-16 354 0
-23 -352 0
353 -352 0
-23 353 0
-30 -351 0
352 -351 0
-30 352 0
-37 -350 0
351 -350 0
-37 351 0
-3 -361 0
-45 356 0
-10 -360 0
361 -360 0
-10 361 0
-17 -359 0
360 -359 0
-17 360 0
-24 -358 0
359 -358 0
-24 359 0
-31 -357 0
358 -357 0
-31 358 0
-38 -356 0
357 -356 0
-38 357 0
-4 -367 0
-46 362 0
-11 -366 0
367 -366 0
-11 367 0
-18 -365 0
366 -365 0
-18 366 0
-25 -364 0
365 -364 0
-25 365 0
-32 -363 0
364 -363 0
-32 364 0
-39 -362 0
363 -362 0
-39 363 0
-5 -373 0
-47 368 0
-12 -372 0
373 -372 0
-12 373 0
-19 -371 0
372 -371 0
-19 372 0
-26 -370 0
371 -370 0
-26 371 0
-33 -369 0
370 -369 0
-33 370 0
-40 -368 0
369 -368 0
-40 369 0
-6 -379 0
-48 374 0
-13 -378 0
379 -378 0
-13 379 0
-20 -377 0
378 -377 0
-20 378 0
-27 -376 0
377 -376 0
-27 377 0
-34 -375 0
376 -375 0
-34 376 0
-41 -374 0
375 -374 0
-41 375 0
-7 -385 0
-49 380 0
-14 -384 0
385 -384 0
-14 385 0
-21 -383 0
384 -383 0
-21 384 0
-28 -382 0
383 -382 0
-28 383 0
-35 -381 0
382 -381 0
-35 382 0
-42 -380 0
381 -380 0
-42 381 0
-50 -391 0
-92 386 0
-57 -390 0
391 -390 0
-57 391 0
-64 -389 0
390 -389 0
-64 390 0
-71 -388 0
389 -388 0
-71 389 0
-78 -387 0
388 -387 0
-78 388 0
-85 -386 0
387 -386 0
-85 387 0
-51 -397 0
-93 392 0
-58 -396 0
397 -396 0
-58 397 0
-65 -395 0
396 -395 0
-65 396 0
-72 -394 0
395 -394 0
-72 395 0
-79 -393 0
394 -393 0
-79 394 0
-86 -392 0
393 -392 0
-86 393 0
-52 -403 0
-94 398 0
-59 -402 0
403 -402 0
-59 403 0
-66 -401 0
402 -401 0
-66 402 0
-73 -400 0
401 -400 0
-73 401 0
-80 -399 0
400 -399 0
-80 400 0
-87 -398 0
399 -398 0
-87 399 0
-53 -409 0
-95 404 0
-60 -408 0
409 -408 0
-60 409 0
-67 -407 0
408 -407 0
-67 408 0
-74 -406 0
407 -406 0
-74 407 0
-81 -405 0
406 -405 0
-81 406 0
-88 -404 0
405 -404 0
-88 405 0
-54 -415 0
-96 410 0
-61 -414 0
415 -414 0
-61 415 0
-68 -413 0
414 -413 0
-68 414 0
-75 -412 0
413 -412 0
-75 413 0
-82 -411 0
412 -411 0
-82 412 0
-89 -410 0
411 -410 0
-89 411 0
-55 -421 0
-97 416 0
-62 -420 0
421 -420 0
-62 421 0
-69 -419 0
420 -419 0
-69 420 0
-76 -418 0
419 -418 0
-76 419 0
-83 -417 0
418 -417 0
-83 418 0
-90 -416 0
417 -416 0
-90 417 0
-56 -427 0
-98 422 0
-63 -426 0
427 -426 0
-63 427 0
-70 -425 0
426 -425 0
-70 426 0
-77 -424 0
425 -424 0
-77 425 0
-84 -423 0
424 -423 0
-84 424 0
-91 -422 0
423 -422 0
-91 423 0
-99 -433 0
-141 428 0
-106 -432 0
433 -432 0
-106 433 0
-113 -431 0
432 -431 0
-113 432 0
-120 -430 0
431 -430 0
-120 431 0
-127 -429 0
430 -429 0
-127 430 0
-134 -428 0
429 -428 0
-134 429 0
-100 -439 0
-142 434 0
-107 -438 0
439 -438 0
-107 439 0
-114 -437 0
438 -437 0
-114 438 0
-121 -436 0
437 -436 0
-121 437 0
-128 -435 0
436 -435 0
-128 436 0
-135 -434 0
435 -434 0
-135 435 0
-101 -445 0
-143 440 0
-108 -444 0
445 -444 0
-108 445 0
-115 -443 0
444 -443 0
-115 444 0
-122 -442 0
443 -442 0
-122 443 0
-129 -441 0
442 -441 0
-129 442 0
-136 -440 0
441 -440 0
-136 441 0
-102 -451 0
-144 446 0
-109 -450 0
451 -450 0
-109 451 0
-116 -449 0
450 -449 0
-116 450 0
-123 -448 0
449 -448 0
-123 449 0
-130 -447 0
448 -447 0
-130 448 0
-137 -446 0
447 -446 0
-137 447 0
-103 -457 0
-145 452 0
-110 -456 0
457 -456 0
-110 457 0
-117 -455 0
456 -455 0
-117 456 0
-124 -454 0
455 -454 0
-124 455 0
-131 -453 0
454 -453 0
-131 454 0
-138 -452 0
453 -452 0
-138 453 0
-104 -463 0
-146 458 0
-111 -462 0
463 -462 0
-111 463 0
-118 -461 0
462 -461 0
-118 462 0
-125 -460 0
461 -460 0
-125 461 0
-132 -459 0
460 -459 0
-132 460 0
-139 -458 0
459 -458 0
-139 459 0
-105 -469 0
-147 464 0
-112 -468 0
469 -468 0
-112 469 0
-119 -467 0
468 -467 0
-119 468 0
-126 -466 0
467 -466 0
-126 467 0
-133 -465 0
466 -465 0
-133 466 0
-140 -464 0
465 -464 0
-140 465 0
-148 -475 0
-190 470 0
-155 -474 0
475 -474 0
-155 475 0
-162 -473 0
474 -473 0
-162 474 0
-169 -472 0
473 -472 0
-169 473 0
-176 -471 0
472 -471 0
-176 472 0
-183 -470 0
471 -470 0
-183 471 0
-149 -481 0
-191 476 0
-156 -480 0
481 -480 0
-156 481 0
-163 -479 0
480 -479 0
-163 480 0
-170 -478 0
479 -478 0
-170 479 0
-177 -477 0
478 -477 0
-177 478 0
-184 -476 0
477 -476 0
-184 477 0
-150 -487 0
-192 482 0
-157 -486 0
487 -486 0
-157 487 0
-164 -485 0
486 -485 0
-164 486 0
-171 -484 0
485 -484 0
-171 485 0
-178 -483 0
484 -483 0
-178 484 0
-185 -482 0
483 -482 0
-185 483 0
-151 -493 0
-193 488 0
-158 -492 0
493 -492 0
-158 493 0
-165 -491 0
492 -491 0
-165 492 0
-172 -490 0
491 -490 0
-172 491 0
-179 -489 0
490 -489 0
-179 490 0
-186 -488 0
489 -488 0
-186 489 0
-152 -499 0
-194 494 0
-159 -498 0
499 -498 0
-159 499 0
-166 -497 0
498 -497 0
-166 498 0
-173 -496 0
497 -496 0
-173 497 0
-180 -495 0
496 -495 0
-180 496 0
-187 -494 0
495 -494 0
-187 495 0
-153 -505 0
-195 500 0
-160 -504 0
505 -504 0
-160 505 0
-167 -503 0
504 -503 0
-167 504 0
-174 -502 0
503 -502 0
-174 503 0
-181 -501 0
502 -501 0
-181 502 0
-188 -500 0
501 -500 0
-188 501 0
-154 -511 0
-196 506 0
-161 -510 0
511 -510 0
-161 511 0
-168 -509 0
510 -509 0
-168 510 0
-175 -508 0
509 -508 0
-175 509 0
-182 -507 0
508 -507 0
-182 508 0
-189 -506 0
507 -506 0
-189 507 0
-197 -517 0
-239 512 0
-204 -516 0
517 -516 0
-204 517 0
-211 -515 0
516 -515 0
-211 516 0
-218 -514 0
515 -514 0
-218 515 0
-225 -513 0
514 -513 0
-225 514 0
-232 -512 0
513 -512 0
-232 513 0
-198 -523 0
-240 518 0
-205 -522 0
523 -522 0
-205 523 0
-212 -521 0
522 -521 0
-212 522 0
-219 -520 0
521 -520 0
-219 521 0
-226 -519 0
520 -519 0
-226 520 0
-233 -518 0
519 -518 0
-233 519 0
-199 -529 0
-241 524 0
-206 -528 0
529 -528 0
-206 529 0
-213 -527 0
528 -527 0
-213 528 0
-220 -526 0
527 -526 0
-220 527 0
-227 -525 0
526 -525 0
-227 526 0
-234 -524 0
525 -524 0
-234 525 0
-200 -535 0
-242 530 0
-207 -534 0
535 -534 0
-207 535 0
-214 -533 0
534 -533 0
-214 534 0
-221 -532 0
533 -532 0
-221 533 0
-228 -531 0
532 -531 0
-228 532 0
-235 -530 0
531 -530 0
-235 531 0
-201 -541 0
-243 536 0
-208 -540 0
541 -540 0
-208 541 0
-215 -539 0
540 -539 0
-215 540 0
-222 -538 0
539 -538 0
-222 539 0
-229 -537 0
538 -537 0
-229 538 0
-236 -536 0
537 -536 0
-236 537 0
-202 -547 0
-244 542 0
-209 -546 0
547 -546 0
-209 547 0
-216 -545 0
546 -545 0
-216 546 0
-223 -544 0
545 -544 0
-223 545 0
-230 -543 0
544 -543 0
-230 544 0
-237 -542 0
543 -542 0
-237 543 0
-203 -553 0
-245 548 0
-210 -552 0
553 -552 0
-210 553 0
-217 -551 0
552 -551 0
-217 552 0
-224 -550 0
551 -550 0
-224 551 0
-231 -549 0
550 -549 0
-231 550 0
-238 -548 0
549 -548 0
-238 549 0
-246 -559 0
-288 554 0
-253 -558 0
559 -558 0
-253 559 0
-260 -557 0
558 -557 0
-260 558 0
-267 -556 0
557 -556 0
-267 557 0
-274 -555 0
556 -555 0
-274 556 0
-281 -554 0
555 -554 0
-281 555 0
-247 -565 0
-289 560 0
-254 -564 0
565 -564 0
-254 565 0
-261 -563 0
564 -563 0
-261 564 0
-268 -562 0
563 -562 0
-268 563 0
-275 -561 0
562 -561 0
-275 562 0
-282 -560 0
561 -560 0
-282 561 0
-248 -571 0
-290 566 0
-255 -570 0
571 -570 0
-255 571 0
-262 -569 0
570 -569 0
-262 570 0
-269 -568 0
569 -568 0
-269 569 0
-276 -567 0
568 -567 0
-276 568 0
-283 -566 0
567 -566 0
-283 567 0
-249 -577 0
-291 572 0
-256 -576 0
577 -576 0
-256 577 0
-263 -575 0
576 -575 0
-263 576 0
-270 -574 0
575 -574 0
-270 575 0
-277 -573 0
574 -573 0
-277 574 0
-284 -572 0
573 -572 0
-284 573 0
-250 -583 0
-292 578 0
-257 -582 0
583 -582 0
-257 583 0
-264 -581 0
582 -581 0
-264 582 0
-271 -580 0
581 -580 0
-271 581 0
-278 -579 0
580 -579 0
-278 580 0
-285 -578 0
579 -578 0
-285 579 0
-251 -589 0
-293 584 0
-258 -588 0
589 -588 0
-258 589 0
-265 -587 0
588 -587 0
-265 588 0
-272 -586 0
587 -586 0
-272 587 0
-279 -585 0
586 -585 0
-279 586 0
-286 -584 0
585 -584 0
-286 585 0
-252 -595 0
-294 590 0
-259 -594 0
595 -594 0
-259 595 0
-266 -593 0
594 -593 0
-266 594 0
-273 -592 0
593 -592 0
-273 593 0
-280 -591 0
592 -591 0
-280 592 0
-287 -590 0
591 -590 0
-287 591 0
-295 -601 0
-337 596 0
-302 -600 0
601 -600 0
-302 601 0
-309 -599 0
600 -599 0
-309 600 0
-316 -598 0
599 -598 0
-316 599 0
-323 -597 0
598 -597 0
-323 598 0
-330 -596 0
597 -596 0
-330 597 0
-296 -607 0
-338 602 0
-303 -606 0
607 -606 0
-303 607 0
-310 -605 0
606 -605 0
-310 606 0
-317 -604 0
605 -604 0
-317 605 0
-324 -603 0
604 -603 0
-324 604 0
-331 -602 0
603 -602 0
-331 603 0
-297 -613 0
-339 608 0
-304 -612 0
613 -612 0
-304 613 0
-311 -611 0
612 -611 0
-311 612 0
-318 -610 0
611 -610 0
-318 611 0
-325 -609 0
610 -609 0
-325 610 0
-332 -608 0
609 -608 0
-332 609 0
-298 -619 0
-340 614 0
-305 -618 0
619 -618 0
-305 619 0
-312 -617 0
618 -617 0
-312 618 0
-319 -616 0
617 -616 0
-319 617 0
-326 -615 0
616 -615 0
-326 616 0
-333 -614 0
615 -614 0
-333 615 0
-299 -625 0
-341 620 0
-306 -624 0
625 -624 0
-306 625 0
-313 -623 0
624 -623 0
-313 624 0
-320 -622 0
623 -622 0
-320 623 0
-327 -621 0
622 -621 0
-327 622 0
-334 -620 0
621 -620 0
-334 621 0
-300 -631 0
-342 626 0
-307 -630 0
631 -630 0
-307 631 0
-314 -629 0
630 -629 0
-314 630 0
-321 -628 0
629 -628 0
-321 629 0
-328 -627 0
628 -627 0
-328 628 0
-335 -626 0
627 -626 0
-335 627 0
-301 -637 0
-343 632 0
-308 -636 0
637 -636 0
-308 637 0
-315 -635 0
636 -635 0
-315 636 0
-322 -634 0
635 -634 0
-322 635 0
-329 -633 0
634 -633 0
-329 634 0
-336 -632 0
633 -632 0
-336 633 0
-1 -643 0
-295 638 0
-50 -642 0
643 -642 0
-50 643 0
-99 -641 0
642 -641 0
-99 642 0
-148 -640 0
641 -640 0
-148 641 0
-197 -639 0
640 -639 0
-197 640 0
-246 -638 0
639 -638 0
-246 639 0
-2 -649 0
-296 644 0
-51 -648 0
649 -648 0
-51 649 0
-100 -647 0
648 -647 0
-100 648 0
-149 -646 0
647 -646 0
-149 647 0
-198 -645 0
646 -645 0
-198 646 0
-247 -644 0
645 -644 0
-247 645 0
-3 -655 0
-297 650 0
-52 -654 0
655 -654 0
-52 655 0
-101 -653 0
654 -653 0
-101 654 0
-150 -652 0
653 -652 0
-150 653 0
-199 -651 0
652 -651 0
-199 652 0
-248 -650 0
651 -650 0
-248 651 0
-4 -661 0
-298 656 0
-53 -660 0
661 -660 0
-53 661 0
-102 -659 0
660 -659 0
-102 660 0
-151 -658 0
659 -658 0
-151 659 0
-200 -657 0
658 -657 0
-200 658 0
-249 -656 0
657 -656 0
-249 657 0
-5 -667 0
-299 662 0
-54 -666 0
667 -666 0
-54 667 0
-103 -665 0
666 -665 0
-103 666 0
-152 -664 0
665 -664 0
-152 665 0
-201 -663 0
664 -663 0
-201 664 0
-250 -662 0
663 -662 0
-250 663 0
-6 -673 0
-300 668 0
-55 -672 0
673 -672 0
-55 673 0
-104 -671 0
672 -671 0
-104 672 0
-153 -670 0
671 -670 0
-153 671 0
-202 -669 0
670 -669 0
-202 670 0
-251 -668 0
669 -668 0
-251 669 0
-7 -679 0
-301 674 0
-56 -678 0
679 -678 0
-56 679 0
-105 -677 0
678 -677 0
-105 678 0
-154 -676 0
677 -676 0
-154 677 0
-203 -675 0
676 -675 0
-203 676 0
-252 -674 0
675 -674 0
-252 675 0
-8 -685 0
-302 680 0
-57 -684 0
685 -684 0
-57 685 0
-106 -683 0
684 -683 0
-106 684 0
-155 -682 0
683 -682 0
-155 683 0
-204 -681 0
682 -681 0
-204 682 0
-253 -680 0
681 -680 0
-253 681 0
-9 -691 0
-303 686 0
-58 -690 0
691 -690 0
-58 691 0
-107 -689 0
690 -689 0
-107 690 0
-156 -688 0
689 -688 0
-156 689 0
-205 -687 0
688 -687 0
-205 688 0
-254 -686 0
687 -686 0
-254 687 0
-10 -697 0
-304 692 0
-59 -696 0
697 -696 0
-59 697 0
-108 -695 0
696 -695 0
-108 696 0
-157 -694 0
695 -694 0
-157 695 0
-206 -693 0
694 -693 0
-206 694 0
-255 -692 0
693 -692 0
-255 693 0
-11 -703 0
-305 698 0
-60 -702 0
703 -702 0
-60 703 0
-109 -701 0
702 -701 0
-109 702 0
-158 -700 0
701 -700 0
-158 701 0
-207 -699 0
700 -699 0
-207 700 0
-256 -698 0
699 -698 0
-256 699 0
-12 -709 0
-306 704 0
-61 -708 0
709 -708 0
-61 709 0
-110 -707 0
708 -707 0
-110 708 0
-159 -706 0
707 -706 0
-159 707 0
-208 -705 0
706 -705 0
-208 706 0
-257 -704 0
705 -704 0
-257 705 0
-13 -715 0
-307 710 0
-62 -714 0
715 -714 0
-62 715 0
-111 -713 0
714 -713 0
-111 714 0
-160 -712 0
713 -712 0
-160 713 0
-209 -711 0
712 -711 0
-209 712 0
-258 -710 0
711 -710 0
-258 711 0
-14 -721 0
-308 716 0
-63 -720 0
721 -720 0
-63 721 0
-112 -719 0
720 -719 0
-112 720 0
-161 -718 0
719 -718 0
-161 719 0
-210 -717 0
718 -717 0
-210 718 0
-259 -716 0
717 -716 0
-259 717 0
-15 -727 0
-309 722 0
-64 -726 0
727 -726 0
-64 727 0
-113 -725 0
726 -725 0
-113 726 0
-162 -724 0
725 -724 0
-162 725 0
-211 -723 0
724 -723 0
-211 724 0
-260 -722 0
723 -722 0
-260 723 0
-16 -733 0
-310 728 0
-65 -732 0
733 -732 0
-65 733 0
-114 -731 0
732 -731 0
-114 732 0
-163 -730 0
731 -730 0
-163 731 0
-212 -729 0
730 -729 0
-212 730 0
-261 -728 0
729 -728 0
-261 729 0
-17 -739 0
-311 734 0
-66 -738 0
739 -738 0
-66 739 0
-115 -737 0
738 -737 0
-115 738 0
-164 -736 0
737 -736 0
-164 737 0
-213 -735 0
736 -735 0
-213 736 0
-262 -734 0
735 -734 0
-262 735 0
-18 -745 0
-312 740 0
-67 -744 0
745 -744 0
-67 745 0
-116 -743 0
744 -743 0
-116 744 0
-165 -742 0
743 -742 0
-165 743 0
-214 -741 0
742 -741 0
-214 742 0
-263 -740 0
741 -740 0
-263 741 0
-19 -751 0
-313 746 0
-68 -750 0
751 -750 0
-68 751 0
-117 -749 0
750 -749 0
-117 750 0
-166 -748 0
749 -748 0
-166 749 0
-215 -747 0
748 -747 0
-215 748 0
-264 -746 0
747 -746 0
-264 747 0
-20 -757 0
-314 752 0
-69 -756 0
757 -756 0
-69 757 0
-118 -755 0
756 -755 0
-118 756 0
-167 -754 0
755 -754 0
-167 755 0
-216 -753 0
754 -753 0
-216 754 0
-265 -752 0
753 -752 0
-265 753 0
-21 -763 0
-315 758 0
-70 -762 0
763 -762 0
-70 763 0
-119 -761 0
762 -761 0
-119 762 0
-168 -760 0
761 -760 0
-168 761 0
-217 -759 0
760 -759 0
-217 760 0
-266 -758 0
759 -758 0
-266 759 0
-22 -769 0
-316 764 0
-71 -768 0
769 -768 0
-71 769 0
-120 -767 0
768 -767 0
-120 768 0
-169 -766 0
767 -766 0
-169 767 0
-218 -765 0
766 -765 0
-218 766 0
-267 -764 0
765 -764 0
-267 765 0
-23 -775 0
-317 770 0
-72 -774 0
775 -774 0
-72 775 0
-121 -773 0
774 -773 0
-121 774 0
-170 -772 0
773 -772 0
-170 773 0
-219 -771 0
772 -771 0
-219 772 0
-268 -770 0
771 -770 0
-268 771 0
-24 -781 0
-318 776 0
-73 -780 0
781 -780 0
-73 781 0
-122 -779 0
780 -779 0
-122 780 0
-171 -778 0
779 -778 0
-171 779 0
-220 -777 0
778 -777 0
-220 778 0
-269 -776 0
777 -776 0
-269 777 0
-25 -787 0
-319 782 0
-74 -786 0
787 -786 0
-74 787 0
-123 -785 0
786 -785 0
-123 786 0
-172 -784 0
785 -784 0
-172 785 0
-221 -783 0
784 -783 0
-221 784 0
-270 -782 0
783 -782 0
-270 783 0
-26 -793 0
-320 788 0
-75 -792 0
793 -792 0
-75 793 0
-124 -791 0
792 -791 0
-124 792 0
-173 -790 0
791 -790 0
-173 791 0
-222 -789 0
790 -789 0
-222 790 0
-271 -788 0
789 -788 0
-271 789 0
-27 -799 0
-321 794 0
-76 -798 0
799 -798 0
-76 799 0
-125 -797 0
798 -797 0
-125 798 0
-174 -796 0
797 -796 0
-174 797 0
-223 -795 0
796 -795 0
-223 796 0
-272 -794 0
795 -794 0
-272 795 0
-28 -805 0
-322 800 0
-77 -804 0
805 -804 0
-77 805 0
-126 -803 0
804 -803 0
-126 804 0
-175 -802 0
803 -802 0
-175 803 0
-224 -801 0
802 -801 0
-224 802 0
-273 -800 0
801 -800 0
-273 801 0
-29 -811 0
-323 806 0
-78 -810 0
811 -810 0
-78 811 0
-127 -809 0
810 -809 0
-127 810 0
-176 -808 0
809 -808 0
-176 809 0
-225 -807 0
808 -807 0
-225 808 0
-274 -806 0
807 -806 0
-274 807 0
-30 -817 0
-324 812 0
-79 -816 0
817 -816 0
-79 817 0
-128 -815 0
816 -815 0
-128 816 0
-177 -814 0
815 -814 0
-177 815 0
-226 -813 0
814 -813 0
-226 814 0
-275 -812 0
813 -812 0
-275 813 0
-31 -823 0
-325 818 0
-80 -822 0
823 -822 0
-80 823 0
-129 -821 0
822 -821 0
-129 822 0
-178 -820 0
821 -820 0
-178 821 0
-227 -819 0
820 -819 0
-227 820 0
-276 -818 0
819 -818 0
-276 819 0
-32 -829 0
-326 824 0
-81 -828 0
829 -828 0
-81 829 0
-130 -827 0
828 -827 0
-130 828 0
-179 -826 0
827 -826 0
-179 827 0
-228 -825 0
826 -825 0
-228 826 0
-277 -824 0
825 -824 0
-277 825 0
-33 -835 0
-327 830 0
-82 -834 0
835 -834 0
-82 835 0
-131 -833 0
834 -833 0
-131 834 0
-180 -832 0
833 -832 0
-180 833 0
-229 -831 0
832 -831 0
-229 832 0
-278 -830 0
831 -830 0
-278 831 0
-34 -841 0
-328 836 0
-83 -840 0
841 -840 0
-83 841 0
-132 -839 0
840 -839 0
-132 840 0
-181 -838 0
839 -838 0
-181 839 0
-230 -837 0
838 -837 0
-230 838 0
-279 -836 0
837 -836 0
-279 837 0
-35 -847 0
-329 842 0
-84 -846 0
847 -846 0
-84 847 0
-133 -845 0
846 -845 0
-133 846 0
-182 -844 0
845 -844 0
-182 845 0
-231 -843 0
844 -843 0
-231 844 0
-280 -842 0
843 -842 0
-280 843 0
-36 -853 0
-330 848 0
-85 -852 0
853 -852 0
-85 853 0
-134 -851 0
852 -851 0
-134 852 0
-183 -850 0
851 -850 0
-183 851 0
-232 -849 0
850 -849 0
-232 850 0
-281 -848 0
849 -848 0
-281 849 0
-37 -859 0
-331 854 0
-86 -858 0
859 -858 0
-86 859 0
-135 -857 0
858 -857 0
-135 858 0
-184 -856 0
857 -856 0
-184 857 0
-233 -855 0
856 -855 0
-233 856 0
-282 -854 0
855 -854 0
-282 855 0
-38 -865 0
-332 860 0
-87 -864 0
865 -864 0
-87 865 0
-136 -863 0
864 -863 0
-136 864 0
-185 -862 0
863 -862 0
-185 863 0
-234 -861 0
862 -861 0
-234 862 0
-283 -860 0
861 -860 0
-283 861 0
-39 -871 0
-333 866 0
-88 -870 0
871 -870 0
-88 871 0
-137 -869 0
870 -869 0
-137 870 0
-186 -868 0
869 -868 0
-186 869 0
-235 -867 0
868 -867 0
-235 868 0
-284 -866 0
867 -866 0
-284 867 0
-40 -877 0
-334 872 0
-89 -876 0
877 -876 0
-89 877 0
-138 -875 0
876 -875 0
-138 876 0
-187 -874 0
875 -874 0
-187 875 0
-236 -873 0
874 -873 0
-236 874 0
-285 -872 0
873 -872 0
-285 873 0
-41 -883 0
-335 878 0
-90 -882 0
883 -882 0
-90 883 0
-139 -881 0
882 -881 0
-139 882 0
-188 -880 0
881 -880 0
-188 881 0
-237 -879 0
880 -879 0
-237 880 0
-286 -878 0
879 -878 0
-286 879 0
-42 -889 0
-336 884 0
-91 -888 0
889 -888 0
-91 889 0
-140 -887 0
888 -887 0
-140 888 0
-189 -886 0
887 -886 0
-189 887 0
-238 -885 0
886 -885 0
-238 886 0
-287 -884 0
885 -884 0
-287 885 0
-43 -895 0
-337 890 0
-92 -894 0
895 -894 0
-92 895 0
-141 -893 0
894 -893 0
-141 894 0
-190 -892 0
893 -892 0
-190 893 0
-239 -891 0
892 -891 0
-239 892 0
-288 -890 0
891 -890 0
-288 891 0
-44 -901 0
-338 896 0
-93 -900 0
901 -900 0
-93 901 0
-142 -899 0
900 -899 0
-142 900 0
-191 -898 0
899 -898 0
-191 899 0
